\ This file has been generated by DOcplex
\ ENCODING=ISO-8859-1
\Problem name: Qrandom15242_6.lp

Minimize
 obj: - 521176 x0 - 260588 x1 - 130294 x2 - 520496 x3 - 260248 x4 - 130124 x5 +
      [ 299296 x0^2 + 299296 x0*x1 + 149648 x0*x2 + 595776 x0*x3 + 297888 x0*x4
      + 148944 x0*x5 + 74824 x1^2 + 74824 x1*x2 + 297888 x1*x3 + 148944 x1*x4
      + 74472 x1*x5 + 18706 x2^2 + 148944 x2*x3 + 74472 x2*x4 + 37236 x2*x5
      + 298752 x3^2 + 298752 x3*x4 + 149376 x3*x5 + 74688 x4^2 + 74688 x4*x5
      + 18672 x5^2 ]/2 + 455210
Subject To

Bounds
 0 <= x0 <= 1
 0 <= x1 <= 1
 0 <= x2 <= 1
 0 <= x3 <= 1
 0 <= x4 <= 1
 0 <= x5 <= 1

Binaries
 x0 x1 x2 x3 x4 x5
End
